p cnf 902 2777
-1 5 51 0
1 5 -51 0
-1 -5 -51 0
1 -5 51 0
6 -7 52 0
-6 -7 -52 0
6 7 -52 0
-6 7 52 0
-8 -11 53 0
8 -11 -53 0
-8 11 -53 0
8 11 53 0
-13 15 54 0
13 15 -54 0
-13 -15 -54 0
13 -15 54 0
-16 19 55 0
16 19 -55 0
-16 -19 -55 0
16 -19 55 0
20 21 56 0
-20 21 -56 0
20 -21 -56 0
-20 -21 56 0
-23 -25 57 0
23 -25 -57 0
-23 25 -57 0
23 25 57 0
26 -27 58 0
-26 -27 -58 0
26 27 -58 0
-26 27 58 0
-28 -29 59 0
28 -29 -59 0
-28 29 -59 0
28 29 59 0
32 34 60 0
-32 34 -60 0
32 -34 -60 0
-32 -34 60 0
38 -42 61 0
-38 -42 -61 0
38 42 -61 0
-38 42 61 0
45 48 62 0
-45 48 -62 0
45 -48 -62 0
-45 -48 62 0
-49 -50 63 0
49 -50 -63 0
-49 50 -63 0
49 50 63 0
51 -52 64 0
-51 -52 -64 0
51 52 -64 0
-51 52 64 0
53 -54 65 0
-53 -54 -65 0
53 54 -65 0
-53 54 65 0
55 -56 66 0
-55 -56 -66 0
55 56 -66 0
-55 56 66 0
57 -58 67 0
-57 -58 -67 0
57 58 -67 0
-57 58 67 0
59 -60 68 0
-59 -60 -68 0
59 60 -68 0
-59 60 68 0
61 -62 69 0
-61 -62 -69 0
61 62 -69 0
-61 62 69 0
63 -64 70 0
-63 -64 -70 0
63 64 -70 0
-63 64 70 0
65 -66 71 0
-65 -66 -71 0
65 66 -71 0
-65 66 71 0
67 -68 72 0
-67 -68 -72 0
67 68 -72 0
-67 68 72 0
69 -70 73 0
-69 -70 -73 0
69 70 -73 0
-69 70 73 0
71 -72 74 0
-71 -72 -74 0
71 72 -74 0
-71 72 74 0
73 74 0
-73 -74 0
-1 -3 75 0
1 -3 -75 0
-1 3 -75 0
1 3 75 0
-4 -5 76 0
4 -5 -76 0
-4 5 -76 0
4 5 76 0
-9 -14 77 0
9 -14 -77 0
-9 14 -77 0
9 14 77 0
15 16 78 0
-15 16 -78 0
15 -16 -78 0
-15 -16 78 0
-18 -19 79 0
18 -19 -79 0
-18 19 -79 0
18 19 79 0
20 22 80 0
-20 22 -80 0
20 -22 -80 0
-20 -22 80 0
23 25 81 0
-23 25 -81 0
23 -25 -81 0
-23 -25 81 0
-26 -27 82 0
26 -27 -82 0
-26 27 -82 0
26 27 82 0
29 -32 83 0
-29 -32 -83 0
29 32 -83 0
-29 32 83 0
-34 41 84 0
34 41 -84 0
-34 -41 -84 0
34 -41 84 0
44 46 85 0
-44 46 -85 0
44 -46 -85 0
-44 -46 85 0
-47 49 86 0
47 49 -86 0
-47 -49 -86 0
47 -49 86 0
75 -76 87 0
-75 -76 -87 0
75 76 -87 0
-75 76 87 0
77 -78 88 0
-77 -78 -88 0
77 78 -88 0
-77 78 88 0
79 -80 89 0
-79 -80 -89 0
79 80 -89 0
-79 80 89 0
81 -82 90 0
-81 -82 -90 0
81 82 -90 0
-81 82 90 0
83 -84 91 0
-83 -84 -91 0
83 84 -91 0
-83 84 91 0
85 -86 92 0
-85 -86 -92 0
85 86 -92 0
-85 86 92 0
87 -88 93 0
-87 -88 -93 0
87 88 -93 0
-87 88 93 0
89 -90 94 0
-89 -90 -94 0
89 90 -94 0
-89 90 94 0
91 -92 95 0
-91 -92 -95 0
91 92 -95 0
-91 92 95 0
-93 -94 95 0
93 -94 -95 0
-93 94 -95 0
93 94 95 0
-1 -2 96 0
1 -2 -96 0
-1 2 -96 0
1 2 96 0
8 -10 97 0
-8 -10 -97 0
8 10 -97 0
-8 10 97 0
-11 -12 98 0
11 -12 -98 0
-11 12 -98 0
11 12 98 0
-14 -17 99 0
14 -17 -99 0
-14 17 -99 0
14 17 99 0
18 19 100 0
-18 19 -100 0
18 -19 -100 0
-18 -19 100 0
-20 21 101 0
20 21 -101 0
-20 -21 -101 0
20 -21 101 0
24 -33 102 0
-24 -33 -102 0
24 33 -102 0
-24 33 102 0
-34 -35 103 0
34 -35 -103 0
-34 35 -103 0
34 35 103 0
-36 -38 104 0
36 -38 -104 0
-36 38 -104 0
36 38 104 0
-42 -44 105 0
42 -44 -105 0
-42 44 -105 0
42 44 105 0
45 46 106 0
-45 46 -106 0
45 -46 -106 0
-45 -46 106 0
-47 -48 107 0
47 -48 -107 0
-47 48 -107 0
47 48 107 0
-49 -50 108 0
49 -50 -108 0
-49 50 -108 0
49 50 108 0
96 -97 109 0
-96 -97 -109 0
96 97 -109 0
-96 97 109 0
98 -99 110 0
-98 -99 -110 0
98 99 -110 0
-98 99 110 0
100 -101 111 0
-100 -101 -111 0
100 101 -111 0
-100 101 111 0
102 -103 112 0
-102 -103 -112 0
102 103 -112 0
-102 103 112 0
104 -105 113 0
-104 -105 -113 0
104 105 -113 0
-104 105 113 0
106 -107 114 0
-106 -107 -114 0
106 107 -114 0
-106 107 114 0
108 -109 115 0
-108 -109 -115 0
108 109 -115 0
-108 109 115 0
110 -111 116 0
-110 -111 -116 0
110 111 -116 0
-110 111 116 0
112 -113 117 0
-112 -113 -117 0
112 113 -117 0
-112 113 117 0
114 -115 118 0
-114 -115 -118 0
114 115 -118 0
-114 115 118 0
116 -117 119 0
-116 -117 -119 0
116 117 -119 0
-116 117 119 0
118 119 0
-118 -119 0
1 -3 120 0
-1 -3 -120 0
1 3 -120 0
-1 3 120 0
-4 -5 121 0
4 -5 -121 0
-4 5 -121 0
4 5 121 0
10 11 122 0
-10 11 -122 0
10 -11 -122 0
-10 -11 122 0
-12 -13 123 0
12 -13 -123 0
-12 13 -123 0
12 13 123 0
14 -19 124 0
-14 -19 -124 0
14 19 -124 0
-14 19 124 0
-20 23 125 0
20 23 -125 0
-20 -23 -125 0
20 -23 125 0
24 -26 126 0
-24 -26 -126 0
24 26 -126 0
-24 26 126 0
27 -31 127 0
-27 -31 -127 0
27 31 -127 0
-27 31 127 0
35 36 128 0
-35 36 -128 0
35 -36 -128 0
-35 -36 128 0
-38 39 129 0
38 39 -129 0
-38 -39 -129 0
38 -39 129 0
-40 -43 130 0
40 -43 -130 0
-40 43 -130 0
40 43 130 0
-45 -47 131 0
45 -47 -131 0
-45 47 -131 0
45 47 131 0
48 -49 132 0
-48 -49 -132 0
48 49 -132 0
-48 49 132 0
119 -120 133 0
-119 -120 -133 0
119 120 -133 0
-119 120 133 0
121 -122 134 0
-121 -122 -134 0
121 122 -134 0
-121 122 134 0
123 -124 135 0
-123 -124 -135 0
123 124 -135 0
-123 124 135 0
125 -126 136 0
-125 -126 -136 0
125 126 -136 0
-125 126 136 0
127 -128 137 0
-127 -128 -137 0
127 128 -137 0
-127 128 137 0
129 -130 138 0
-129 -130 -138 0
129 130 -138 0
-129 130 138 0
131 -132 139 0
-131 -132 -139 0
131 132 -139 0
-131 132 139 0
133 -134 140 0
-133 -134 -140 0
133 134 -140 0
-133 134 140 0
135 -136 141 0
-135 -136 -141 0
135 136 -141 0
-135 136 141 0
137 -138 142 0
-137 -138 -142 0
137 138 -142 0
-137 138 142 0
139 -140 143 0
-139 -140 -143 0
139 140 -143 0
-139 140 143 0
141 -142 144 0
-141 -142 -144 0
141 142 -144 0
-141 142 144 0
143 144 0
-143 -144 0
2 -3 145 0
-2 -3 -145 0
2 3 -145 0
-2 3 145 0
-7 -8 146 0
7 -8 -146 0
-7 8 -146 0
7 8 146 0
-10 11 147 0
10 11 -147 0
-10 -11 -147 0
10 -11 147 0
12 13 148 0
-12 13 -148 0
12 -13 -148 0
-12 -13 148 0
-14 -16 149 0
14 -16 -149 0
-14 16 -149 0
14 16 149 0
-18 -21 150 0
18 -21 -150 0
-18 21 -150 0
18 21 150 0
-24 25 151 0
24 25 -151 0
-24 -25 -151 0
24 -25 151 0
28 -30 152 0
-28 -30 -152 0
28 30 -152 0
-28 30 152 0
-33 34 153 0
33 34 -153 0
-33 -34 -153 0
33 -34 153 0
35 36 154 0
-35 36 -154 0
35 -36 -154 0
-35 -36 154 0
-37 -38 155 0
37 -38 -155 0
-37 38 -155 0
37 38 155 0
39 -46 156 0
-39 -46 -156 0
39 46 -156 0
-39 46 156 0
144 -145 157 0
-144 -145 -157 0
144 145 -157 0
-144 145 157 0
146 -147 158 0
-146 -147 -158 0
146 147 -158 0
-146 147 158 0
148 -149 159 0
-148 -149 -159 0
148 149 -159 0
-148 149 159 0
150 -151 160 0
-150 -151 -160 0
150 151 -160 0
-150 151 160 0
152 -153 161 0
-152 -153 -161 0
152 153 -161 0
-152 153 161 0
154 -155 162 0
-154 -155 -162 0
154 155 -162 0
-154 155 162 0
156 -157 163 0
-156 -157 -163 0
156 157 -163 0
-156 157 163 0
158 -159 164 0
-158 -159 -164 0
158 159 -164 0
-158 159 164 0
160 -161 165 0
-160 -161 -165 0
160 161 -165 0
-160 161 165 0
162 -163 166 0
-162 -163 -166 0
162 163 -166 0
-162 163 166 0
164 -165 167 0
-164 -165 -167 0
164 165 -167 0
-164 165 167 0
166 167 0
-166 -167 0
1 2 168 0
-1 2 -168 0
1 -2 -168 0
-1 -2 168 0
-3 -4 169 0
3 -4 -169 0
-3 4 -169 0
3 4 169 0
5 -6 170 0
-5 -6 -170 0
5 6 -170 0
-5 6 170 0
7 9 171 0
-7 9 -171 0
7 -9 -171 0
-7 -9 171 0
17 18 172 0
-17 18 -172 0
17 -18 -172 0
-17 -18 172 0
-20 -21 173 0
20 -21 -173 0
-20 21 -173 0
20 21 173 0
22 23 174 0
-22 23 -174 0
22 -23 -174 0
-22 -23 174 0
25 27 175 0
-25 27 -175 0
25 -27 -175 0
-25 -27 175 0
28 -29 176 0
-28 -29 -176 0
28 29 -176 0
-28 29 176 0
32 34 177 0
-32 34 -177 0
32 -34 -177 0
-32 -34 177 0
35 44 178 0
-35 44 -178 0
35 -44 -178 0
-35 -44 178 0
-46 -50 179 0
46 -50 -179 0
-46 50 -179 0
46 50 179 0
168 -169 180 0
-168 -169 -180 0
168 169 -180 0
-168 169 180 0
170 -171 181 0
-170 -171 -181 0
170 171 -181 0
-170 171 181 0
172 -173 182 0
-172 -173 -182 0
172 173 -182 0
-172 173 182 0
174 -175 183 0
-174 -175 -183 0
174 175 -183 0
-174 175 183 0
176 -177 184 0
-176 -177 -184 0
176 177 -184 0
-176 177 184 0
178 -179 185 0
-178 -179 -185 0
178 179 -185 0
-178 179 185 0
180 -181 186 0
-180 -181 -186 0
180 181 -186 0
-180 181 186 0
182 -183 187 0
-182 -183 -187 0
182 183 -187 0
-182 183 187 0
184 -185 188 0
-184 -185 -188 0
184 185 -188 0
-184 185 188 0
-186 -187 188 0
186 -187 -188 0
-186 187 -188 0
186 187 188 0
3 4 189 0
-3 4 -189 0
3 -4 -189 0
-3 -4 189 0
6 7 190 0
-6 7 -190 0
6 -7 -190 0
-6 -7 190 0
-8 9 191 0
8 9 -191 0
-8 -9 -191 0
8 -9 191 0
10 11 192 0
-10 11 -192 0
10 -11 -192 0
-10 -11 192 0
12 -15 193 0
-12 -15 -193 0
12 15 -193 0
-12 15 193 0
-17 -18 194 0
17 -18 -194 0
-17 18 -194 0
17 18 194 0
-20 21 195 0
20 21 -195 0
-20 -21 -195 0
20 -21 195 0
-22 -23 196 0
22 -23 -196 0
-22 23 -196 0
22 23 196 0
26 -29 197 0
-26 -29 -197 0
26 29 -197 0
-26 29 197 0
30 -32 198 0
-30 -32 -198 0
30 32 -198 0
-30 32 198 0
-33 35 199 0
33 35 -199 0
-33 -35 -199 0
33 -35 199 0
37 45 200 0
-37 45 -200 0
37 -45 -200 0
-37 -45 200 0
-48 50 201 0
48 50 -201 0
-48 -50 -201 0
48 -50 201 0
189 -190 202 0
-189 -190 -202 0
189 190 -202 0
-189 190 202 0
191 -192 203 0
-191 -192 -203 0
191 192 -203 0
-191 192 203 0
193 -194 204 0
-193 -194 -204 0
193 194 -204 0
-193 194 204 0
195 -196 205 0
-195 -196 -205 0
195 196 -205 0
-195 196 205 0
197 -198 206 0
-197 -198 -206 0
197 198 -206 0
-197 198 206 0
199 -200 207 0
-199 -200 -207 0
199 200 -207 0
-199 200 207 0
201 -202 208 0
-201 -202 -208 0
201 202 -208 0
-201 202 208 0
203 -204 209 0
-203 -204 -209 0
203 204 -209 0
-203 204 209 0
205 -206 210 0
-205 -206 -210 0
205 206 -210 0
-205 206 210 0
207 -208 211 0
-207 -208 -211 0
207 208 -211 0
-207 208 211 0
209 -210 212 0
-209 -210 -212 0
209 210 -212 0
-209 210 212 0
211 212 0
-211 -212 0
-1 -3 213 0
1 -3 -213 0
-1 3 -213 0
1 3 213 0
-4 -5 214 0
4 -5 -214 0
-4 5 -214 0
4 5 214 0
-6 -8 215 0
6 -8 -215 0
-6 8 -215 0
6 8 215 0
9 11 216 0
-9 11 -216 0
9 -11 -216 0
-9 -11 216 0
12 -13 217 0
-12 -13 -217 0
12 13 -217 0
-12 13 217 0
-16 -17 218 0
16 -17 -218 0
-16 17 -218 0
16 17 218 0
18 21 219 0
-18 21 -219 0
18 -21 -219 0
-18 -21 219 0
22 23 220 0
-22 23 -220 0
22 -23 -220 0
-22 -23 220 0
-24 26 221 0
24 26 -221 0
-24 -26 -221 0
24 -26 221 0
29 30 222 0
-29 30 -222 0
29 -30 -222 0
-29 -30 222 0
35 -36 223 0
-35 -36 -223 0
35 36 -223 0
-35 36 223 0
-37 -38 224 0
37 -38 -224 0
-37 38 -224 0
37 38 224 0
39 -40 225 0
-39 -40 -225 0
39 40 -225 0
-39 40 225 0
-42 43 226 0
42 43 -226 0
-42 -43 -226 0
42 -43 226 0
-48 49 227 0
48 49 -227 0
-48 -49 -227 0
48 -49 227 0
212 -213 228 0
-212 -213 -228 0
212 213 -228 0
-212 213 228 0
214 -215 229 0
-214 -215 -229 0
214 215 -229 0
-214 215 229 0
216 -217 230 0
-216 -217 -230 0
216 217 -230 0
-216 217 230 0
218 -219 231 0
-218 -219 -231 0
218 219 -231 0
-218 219 231 0
220 -221 232 0
-220 -221 -232 0
220 221 -232 0
-220 221 232 0
222 -223 233 0
-222 -223 -233 0
222 223 -233 0
-222 223 233 0
224 -225 234 0
-224 -225 -234 0
224 225 -234 0
-224 225 234 0
226 -227 235 0
-226 -227 -235 0
226 227 -235 0
-226 227 235 0
228 -229 236 0
-228 -229 -236 0
228 229 -236 0
-228 229 236 0
230 -231 237 0
-230 -231 -237 0
230 231 -237 0
-230 231 237 0
232 -233 238 0
-232 -233 -238 0
232 233 -238 0
-232 233 238 0
234 -235 239 0
-234 -235 -239 0
234 235 -239 0
-234 235 239 0
236 -237 240 0
-236 -237 -240 0
236 237 -240 0
-236 237 240 0
238 -239 241 0
-238 -239 -241 0
238 239 -241 0
-238 239 241 0
240 241 0
-240 -241 0
1 6 242 0
-1 6 -242 0
1 -6 -242 0
-1 -6 242 0
7 11 243 0
-7 11 -243 0
7 -11 -243 0
-7 -11 243 0
12 -13 244 0
-12 -13 -244 0
12 13 -244 0
-12 13 244 0
14 15 245 0
-14 15 -245 0
14 -15 -245 0
-14 -15 245 0
16 17 246 0
-16 17 -246 0
16 -17 -246 0
-16 -17 246 0
-18 20 247 0
18 20 -247 0
-18 -20 -247 0
18 -20 247 0
-24 25 248 0
24 25 -248 0
-24 -25 -248 0
24 -25 248 0
-30 -32 249 0
30 -32 -249 0
-30 32 -249 0
30 32 249 0
33 35 250 0
-33 35 -250 0
33 -35 -250 0
-33 -35 250 0
-36 -37 251 0
36 -37 -251 0
-36 37 -251 0
36 37 251 0
39 41 252 0
-39 41 -252 0
39 -41 -252 0
-39 -41 252 0
-42 43 253 0
42 43 -253 0
-42 -43 -253 0
42 -43 253 0
45 48 254 0
-45 48 -254 0
45 -48 -254 0
-45 -48 254 0
-49 -50 255 0
49 -50 -255 0
-49 50 -255 0
49 50 255 0
242 -243 256 0
-242 -243 -256 0
242 243 -256 0
-242 243 256 0
244 -245 257 0
-244 -245 -257 0
244 245 -257 0
-244 245 257 0
246 -247 258 0
-246 -247 -258 0
246 247 -258 0
-246 247 258 0
248 -249 259 0
-248 -249 -259 0
248 249 -259 0
-248 249 259 0
250 -251 260 0
-250 -251 -260 0
250 251 -260 0
-250 251 260 0
252 -253 261 0
-252 -253 -261 0
252 253 -261 0
-252 253 261 0
254 -255 262 0
-254 -255 -262 0
254 255 -262 0
-254 255 262 0
256 -257 263 0
-256 -257 -263 0
256 257 -263 0
-256 257 263 0
258 -259 264 0
-258 -259 -264 0
258 259 -264 0
-258 259 264 0
260 -261 265 0
-260 -261 -265 0
260 261 -265 0
-260 261 265 0
262 -263 266 0
-262 -263 -266 0
262 263 -266 0
-262 263 266 0
264 -265 267 0
-264 -265 -267 0
264 265 -267 0
-264 265 267 0
266 267 0
-266 -267 0
1 -2 268 0
-1 -2 -268 0
1 2 -268 0
-1 2 268 0
3 4 269 0
-3 4 -269 0
3 -4 -269 0
-3 -4 269 0
5 6 270 0
-5 6 -270 0
5 -6 -270 0
-5 -6 270 0
-9 10 271 0
9 10 -271 0
-9 -10 -271 0
9 -10 271 0
-11 -12 272 0
11 -12 -272 0
-11 12 -272 0
11 12 272 0
-14 -15 273 0
14 -15 -273 0
-14 15 -273 0
14 15 273 0
-16 17 274 0
16 17 -274 0
-16 -17 -274 0
16 -17 274 0
18 20 275 0
-18 20 -275 0
18 -20 -275 0
-18 -20 275 0
-21 -26 276 0
21 -26 -276 0
-21 26 -276 0
21 26 276 0
-28 -29 277 0
28 -29 -277 0
-28 29 -277 0
28 29 277 0
-30 31 278 0
30 31 -278 0
-30 -31 -278 0
30 -31 278 0
-33 35 279 0
33 35 -279 0
-33 -35 -279 0
33 -35 279 0
-37 -38 280 0
37 -38 -280 0
-37 38 -280 0
37 38 280 0
41 43 281 0
-41 43 -281 0
41 -43 -281 0
-41 -43 281 0
-44 47 282 0
44 47 -282 0
-44 -47 -282 0
44 -47 282 0
-49 50 283 0
49 50 -283 0
-49 -50 -283 0
49 -50 283 0
268 -269 284 0
-268 -269 -284 0
268 269 -284 0
-268 269 284 0
270 -271 285 0
-270 -271 -285 0
270 271 -285 0
-270 271 285 0
272 -273 286 0
-272 -273 -286 0
272 273 -286 0
-272 273 286 0
274 -275 287 0
-274 -275 -287 0
274 275 -287 0
-274 275 287 0
276 -277 288 0
-276 -277 -288 0
276 277 -288 0
-276 277 288 0
278 -279 289 0
-278 -279 -289 0
278 279 -289 0
-278 279 289 0
280 -281 290 0
-280 -281 -290 0
280 281 -290 0
-280 281 290 0
282 -283 291 0
-282 -283 -291 0
282 283 -291 0
-282 283 291 0
284 -285 292 0
-284 -285 -292 0
284 285 -292 0
-284 285 292 0
286 -287 293 0
-286 -287 -293 0
286 287 -293 0
-286 287 293 0
288 -289 294 0
-288 -289 -294 0
288 289 -294 0
-288 289 294 0
290 -291 295 0
-290 -291 -295 0
290 291 -295 0
-290 291 295 0
292 -293 296 0
-292 -293 -296 0
292 293 -296 0
-292 293 296 0
294 -295 297 0
-294 -295 -297 0
294 295 -297 0
-294 295 297 0
296 297 0
-296 -297 0
-2 3 298 0
2 3 -298 0
-2 -3 -298 0
2 -3 298 0
-7 11 299 0
7 11 -299 0
-7 -11 -299 0
7 -11 299 0
-12 13 300 0
12 13 -300 0
-12 -13 -300 0
12 -13 300 0
14 -17 301 0
-14 -17 -301 0
14 17 -301 0
-14 17 301 0
-21 24 302 0
21 24 -302 0
-21 -24 -302 0
21 -24 302 0
26 -32 303 0
-26 -32 -303 0
26 32 -303 0
-26 32 303 0
33 35 304 0
-33 35 -304 0
33 -35 -304 0
-33 -35 304 0
-36 42 305 0
36 42 -305 0
-36 -42 -305 0
36 -42 305 0
43 49 306 0
-43 49 -306 0
43 -49 -306 0
-43 -49 306 0
297 -298 307 0
-297 -298 -307 0
297 298 -307 0
-297 298 307 0
299 -300 308 0
-299 -300 -308 0
299 300 -308 0
-299 300 308 0
301 -302 309 0
-301 -302 -309 0
301 302 -309 0
-301 302 309 0
303 -304 310 0
-303 -304 -310 0
303 304 -310 0
-303 304 310 0
305 -306 311 0
-305 -306 -311 0
305 306 -311 0
-305 306 311 0
307 -308 312 0
-307 -308 -312 0
307 308 -312 0
-307 308 312 0
309 -310 313 0
-309 -310 -313 0
309 310 -313 0
-309 310 313 0
-311 -312 313 0
311 -312 -313 0
-311 312 -313 0
311 312 313 0
-2 -5 314 0
2 -5 -314 0
-2 5 -314 0
2 5 314 0
-6 -11 315 0
6 -11 -315 0
-6 11 -315 0
6 11 315 0
-14 -18 316 0
14 -18 -316 0
-14 18 -316 0
14 18 316 0
-21 -22 317 0
21 -22 -317 0
-21 22 -317 0
21 22 317 0
-23 -25 318 0
23 -25 -318 0
-23 25 -318 0
23 25 318 0
26 28 319 0
-26 28 -319 0
26 -28 -319 0
-26 -28 319 0
-30 -32 320 0
30 -32 -320 0
-30 32 -320 0
30 32 320 0
34 35 321 0
-34 35 -321 0
34 -35 -321 0
-34 -35 321 0
36 39 322 0
-36 39 -322 0
36 -39 -322 0
-36 -39 322 0
-40 41 323 0
40 41 -323 0
-40 -41 -323 0
40 -41 323 0
42 -44 324 0
-42 -44 -324 0
42 44 -324 0
-42 44 324 0
46 -47 325 0
-46 -47 -325 0
46 47 -325 0
-46 47 325 0
48 49 326 0
-48 49 -326 0
48 -49 -326 0
-48 -49 326 0
313 -314 327 0
-313 -314 -327 0
313 314 -327 0
-313 314 327 0
315 -316 328 0
-315 -316 -328 0
315 316 -328 0
-315 316 328 0
317 -318 329 0
-317 -318 -329 0
317 318 -329 0
-317 318 329 0
319 -320 330 0
-319 -320 -330 0
319 320 -330 0
-319 320 330 0
321 -322 331 0
-321 -322 -331 0
321 322 -331 0
-321 322 331 0
323 -324 332 0
-323 -324 -332 0
323 324 -332 0
-323 324 332 0
325 -326 333 0
-325 -326 -333 0
325 326 -333 0
-325 326 333 0
327 -328 334 0
-327 -328 -334 0
327 328 -334 0
-327 328 334 0
329 -330 335 0
-329 -330 -335 0
329 330 -335 0
-329 330 335 0
331 -332 336 0
-331 -332 -336 0
331 332 -336 0
-331 332 336 0
333 -334 337 0
-333 -334 -337 0
333 334 -337 0
-333 334 337 0
335 -336 338 0
-335 -336 -338 0
335 336 -338 0
-335 336 338 0
337 338 0
-337 -338 0
1 -2 339 0
-1 -2 -339 0
1 2 -339 0
-1 2 339 0
7 -9 340 0
-7 -9 -340 0
7 9 -340 0
-7 9 340 0
11 -13 341 0
-11 -13 -341 0
11 13 -341 0
-11 13 341 0
14 -17 342 0
-14 -17 -342 0
14 17 -342 0
-14 17 342 0
-21 22 343 0
21 22 -343 0
-21 -22 -343 0
21 -22 343 0
-24 -25 344 0
24 -25 -344 0
-24 25 -344 0
24 25 344 0
28 -29 345 0
-28 -29 -345 0
28 29 -345 0
-28 29 345 0
-30 31 346 0
30 31 -346 0
-30 -31 -346 0
30 -31 346 0
33 34 347 0
-33 34 -347 0
33 -34 -347 0
-33 -34 347 0
35 -36 348 0
-35 -36 -348 0
35 36 -348 0
-35 36 348 0
39 -40 349 0
-39 -40 -349 0
39 40 -349 0
-39 40 349 0
-42 44 350 0
42 44 -350 0
-42 -44 -350 0
42 -44 350 0
-46 48 351 0
46 48 -351 0
-46 -48 -351 0
46 -48 351 0
339 -340 352 0
-339 -340 -352 0
339 340 -352 0
-339 340 352 0
341 -342 353 0
-341 -342 -353 0
341 342 -353 0
-341 342 353 0
343 -344 354 0
-343 -344 -354 0
343 344 -354 0
-343 344 354 0
345 -346 355 0
-345 -346 -355 0
345 346 -355 0
-345 346 355 0
347 -348 356 0
-347 -348 -356 0
347 348 -356 0
-347 348 356 0
349 -350 357 0
-349 -350 -357 0
349 350 -357 0
-349 350 357 0
351 -352 358 0
-351 -352 -358 0
351 352 -358 0
-351 352 358 0
353 -354 359 0
-353 -354 -359 0
353 354 -359 0
-353 354 359 0
355 -356 360 0
-355 -356 -360 0
355 356 -360 0
-355 356 360 0
357 -358 361 0
-357 -358 -361 0
357 358 -361 0
-357 358 361 0
359 -360 362 0
-359 -360 -362 0
359 360 -362 0
-359 360 362 0
361 362 0
-361 -362 0
-1 2 363 0
1 2 -363 0
-1 -2 -363 0
1 -2 363 0
3 -6 364 0
-3 -6 -364 0
3 6 -364 0
-3 6 364 0
-8 -9 365 0
8 -9 -365 0
-8 9 -365 0
8 9 365 0
11 12 366 0
-11 12 -366 0
11 -12 -366 0
-11 -12 366 0
-13 14 367 0
13 14 -367 0
-13 -14 -367 0
13 -14 367 0
-19 -20 368 0
19 -20 -368 0
-19 20 -368 0
19 20 368 0
22 23 369 0
-22 23 -369 0
22 -23 -369 0
-22 -23 369 0
-24 -25 370 0
24 -25 -370 0
-24 25 -370 0
24 25 370 0
-26 -27 371 0
26 -27 -371 0
-26 27 -371 0
26 27 371 0
-28 31 372 0
28 31 -372 0
-28 -31 -372 0
28 -31 372 0
33 -37 373 0
-33 -37 -373 0
33 37 -373 0
-33 37 373 0
-38 -39 374 0
38 -39 -374 0
-38 39 -374 0
38 39 374 0
-40 -41 375 0
40 -41 -375 0
-40 41 -375 0
40 41 375 0
42 46 376 0
-42 46 -376 0
42 -46 -376 0
-42 -46 376 0
47 48 377 0
-47 48 -377 0
47 -48 -377 0
-47 -48 377 0
49 -50 378 0
-49 -50 -378 0
49 50 -378 0
-49 50 378 0
363 -364 379 0
-363 -364 -379 0
363 364 -379 0
-363 364 379 0
365 -366 380 0
-365 -366 -380 0
365 366 -380 0
-365 366 380 0
367 -368 381 0
-367 -368 -381 0
367 368 -381 0
-367 368 381 0
369 -370 382 0
-369 -370 -382 0
369 370 -382 0
-369 370 382 0
371 -372 383 0
-371 -372 -383 0
371 372 -383 0
-371 372 383 0
373 -374 384 0
-373 -374 -384 0
373 374 -384 0
-373 374 384 0
375 -376 385 0
-375 -376 -385 0
375 376 -385 0
-375 376 385 0
377 -378 386 0
-377 -378 -386 0
377 378 -386 0
-377 378 386 0
379 -380 387 0
-379 -380 -387 0
379 380 -387 0
-379 380 387 0
381 -382 388 0
-381 -382 -388 0
381 382 -388 0
-381 382 388 0
383 -384 389 0
-383 -384 -389 0
383 384 -389 0
-383 384 389 0
385 -386 390 0
-385 -386 -390 0
385 386 -390 0
-385 386 390 0
387 -388 391 0
-387 -388 -391 0
387 388 -391 0
-387 388 391 0
389 -390 392 0
-389 -390 -392 0
389 390 -392 0
-389 390 392 0
391 392 0
-391 -392 0
-1 4 393 0
1 4 -393 0
-1 -4 -393 0
1 -4 393 0
-5 6 394 0
5 6 -394 0
-5 -6 -394 0
5 -6 394 0
7 -8 395 0
-7 -8 -395 0
7 8 -395 0
-7 8 395 0
9 -11 396 0
-9 -11 -396 0
9 11 -396 0
-9 11 396 0
-14 -16 397 0
14 -16 -397 0
-14 16 -397 0
14 16 397 0
-20 -24 398 0
20 -24 -398 0
-20 24 -398 0
20 24 398 0
27 28 399 0
-27 28 -399 0
27 -28 -399 0
-27 -28 399 0
30 31 400 0
-30 31 -400 0
30 -31 -400 0
-30 -31 400 0
33 40 401 0
-33 40 -401 0
33 -40 -401 0
-33 -40 401 0
-44 -47 402 0
44 -47 -402 0
-44 47 -402 0
44 47 402 0
392 -393 403 0
-392 -393 -403 0
392 393 -403 0
-392 393 403 0
394 -395 404 0
-394 -395 -404 0
394 395 -404 0
-394 395 404 0
396 -397 405 0
-396 -397 -405 0
396 397 -405 0
-396 397 405 0
398 -399 406 0
-398 -399 -406 0
398 399 -406 0
-398 399 406 0
400 -401 407 0
-400 -401 -407 0
400 401 -407 0
-400 401 407 0
402 -403 408 0
-402 -403 -408 0
402 403 -408 0
-402 403 408 0
404 -405 409 0
-404 -405 -409 0
404 405 -409 0
-404 405 409 0
406 -407 410 0
-406 -407 -410 0
406 407 -410 0
-406 407 410 0
-408 -409 410 0
408 -409 -410 0
-408 409 -410 0
408 409 410 0
-1 2 411 0
1 2 -411 0
-1 -2 -411 0
1 -2 411 0
-4 -6 412 0
4 -6 -412 0
-4 6 -412 0
4 6 412 0
-7 -9 413 0
7 -9 -413 0
-7 9 -413 0
7 9 413 0
-10 -14 414 0
10 -14 -414 0
-10 14 -414 0
10 14 414 0
15 -17 415 0
-15 -17 -415 0
15 17 -415 0
-15 17 415 0
21 -23 416 0
-21 -23 -416 0
21 23 -416 0
-21 23 416 0
-25 -30 417 0
25 -30 -417 0
-25 30 -417 0
25 30 417 0
-31 32 418 0
31 32 -418 0
-31 -32 -418 0
31 -32 418 0
33 34 419 0
-33 34 -419 0
33 -34 -419 0
-33 -34 419 0
35 -38 420 0
-35 -38 -420 0
35 38 -420 0
-35 38 420 0
41 43 421 0
-41 43 -421 0
41 -43 -421 0
-41 -43 421 0
45 -47 422 0
-45 -47 -422 0
45 47 -422 0
-45 47 422 0
48 49 423 0
-48 49 -423 0
48 -49 -423 0
-48 -49 423 0
410 -411 424 0
-410 -411 -424 0
410 411 -424 0
-410 411 424 0
412 -413 425 0
-412 -413 -425 0
412 413 -425 0
-412 413 425 0
414 -415 426 0
-414 -415 -426 0
414 415 -426 0
-414 415 426 0
416 -417 427 0
-416 -417 -427 0
416 417 -427 0
-416 417 427 0
418 -419 428 0
-418 -419 -428 0
418 419 -428 0
-418 419 428 0
420 -421 429 0
-420 -421 -429 0
420 421 -429 0
-420 421 429 0
422 -423 430 0
-422 -423 -430 0
422 423 -430 0
-422 423 430 0
424 -425 431 0
-424 -425 -431 0
424 425 -431 0
-424 425 431 0
426 -427 432 0
-426 -427 -432 0
426 427 -432 0
-426 427 432 0
428 -429 433 0
-428 -429 -433 0
428 429 -433 0
-428 429 433 0
430 -431 434 0
-430 -431 -434 0
430 431 -434 0
-430 431 434 0
432 -433 435 0
-432 -433 -435 0
432 433 -435 0
-432 433 435 0
434 435 0
-434 -435 0
-1 2 436 0
1 2 -436 0
-1 -2 -436 0
1 -2 436 0
-9 -12 437 0
9 -12 -437 0
-9 12 -437 0
9 12 437 0
-18 -20 438 0
18 -20 -438 0
-18 20 -438 0
18 20 438 0
-21 24 439 0
21 24 -439 0
-21 -24 -439 0
21 -24 439 0
-25 -27 440 0
25 -27 -440 0
-25 27 -440 0
25 27 440 0
29 -31 441 0
-29 -31 -441 0
29 31 -441 0
-29 31 441 0
-32 -34 442 0
32 -34 -442 0
-32 34 -442 0
32 34 442 0
-36 37 443 0
36 37 -443 0
-36 -37 -443 0
36 -37 443 0
42 45 444 0
-42 45 -444 0
42 -45 -444 0
-42 -45 444 0
49 50 445 0
-49 50 -445 0
49 -50 -445 0
-49 -50 445 0
436 -437 446 0
-436 -437 -446 0
436 437 -446 0
-436 437 446 0
438 -439 447 0
-438 -439 -447 0
438 439 -447 0
-438 439 447 0
440 -441 448 0
-440 -441 -448 0
440 441 -448 0
-440 441 448 0
442 -443 449 0
-442 -443 -449 0
442 443 -449 0
-442 443 449 0
444 -445 450 0
-444 -445 -450 0
444 445 -450 0
-444 445 450 0
446 -447 451 0
-446 -447 -451 0
446 447 -451 0
-446 447 451 0
448 -449 452 0
-448 -449 -452 0
448 449 -452 0
-448 449 452 0
-450 -451 452 0
450 -451 -452 0
-450 451 -452 0
450 451 452 0
1 2 453 0
-1 2 -453 0
1 -2 -453 0
-1 -2 453 0
5 -9 454 0
-5 -9 -454 0
5 9 -454 0
-5 9 454 0
10 11 455 0
-10 11 -455 0
10 -11 -455 0
-10 -11 455 0
12 -14 456 0
-12 -14 -456 0
12 14 -456 0
-12 14 456 0
15 -18 457 0
-15 -18 -457 0
15 18 -457 0
-15 18 457 0
19 -20 458 0
-19 -20 -458 0
19 20 -458 0
-19 20 458 0
24 -28 459 0
-24 -28 -459 0
24 28 -459 0
-24 28 459 0
30 31 460 0
-30 31 -460 0
30 -31 -460 0
-30 -31 460 0
-32 33 461 0
32 33 -461 0
-32 -33 -461 0
32 -33 461 0
34 -35 462 0
-34 -35 -462 0
34 35 -462 0
-34 35 462 0
36 -38 463 0
-36 -38 -463 0
36 38 -463 0
-36 38 463 0
-40 41 464 0
40 41 -464 0
-40 -41 -464 0
40 -41 464 0
42 43 465 0
-42 43 -465 0
42 -43 -465 0
-42 -43 465 0
-44 45 466 0
44 45 -466 0
-44 -45 -466 0
44 -45 466 0
-47 -48 467 0
47 -48 -467 0
-47 48 -467 0
47 48 467 0
452 -453 468 0
-452 -453 -468 0
452 453 -468 0
-452 453 468 0
454 -455 469 0
-454 -455 -469 0
454 455 -469 0
-454 455 469 0
456 -457 470 0
-456 -457 -470 0
456 457 -470 0
-456 457 470 0
458 -459 471 0
-458 -459 -471 0
458 459 -471 0
-458 459 471 0
460 -461 472 0
-460 -461 -472 0
460 461 -472 0
-460 461 472 0
462 -463 473 0
-462 -463 -473 0
462 463 -473 0
-462 463 473 0
464 -465 474 0
-464 -465 -474 0
464 465 -474 0
-464 465 474 0
466 -467 475 0
-466 -467 -475 0
466 467 -475 0
-466 467 475 0
468 -469 476 0
-468 -469 -476 0
468 469 -476 0
-468 469 476 0
470 -471 477 0
-470 -471 -477 0
470 471 -477 0
-470 471 477 0
472 -473 478 0
-472 -473 -478 0
472 473 -478 0
-472 473 478 0
474 -475 479 0
-474 -475 -479 0
474 475 -479 0
-474 475 479 0
476 -477 480 0
-476 -477 -480 0
476 477 -480 0
-476 477 480 0
478 -479 481 0
-478 -479 -481 0
478 479 -481 0
-478 479 481 0
480 481 0
-480 -481 0
1 -3 482 0
-1 -3 -482 0
1 3 -482 0
-1 3 482 0
4 -5 483 0
-4 -5 -483 0
4 5 -483 0
-4 5 483 0
9 -10 484 0
-9 -10 -484 0
9 10 -484 0
-9 10 484 0
12 -13 485 0
-12 -13 -485 0
12 13 -485 0
-12 13 485 0
14 -16 486 0
-14 -16 -486 0
14 16 -486 0
-14 16 486 0
-17 -18 487 0
17 -18 -487 0
-17 18 -487 0
17 18 487 0
19 23 488 0
-19 23 -488 0
19 -23 -488 0
-19 -23 488 0
-27 28 489 0
27 28 -489 0
-27 -28 -489 0
27 -28 489 0
-29 30 490 0
29 30 -490 0
-29 -30 -490 0
29 -30 490 0
32 35 491 0
-32 35 -491 0
32 -35 -491 0
-32 -35 491 0
-36 -37 492 0
36 -37 -492 0
-36 37 -492 0
36 37 492 0
-39 -41 493 0
39 -41 -493 0
-39 41 -493 0
39 41 493 0
-43 -45 494 0
43 -45 -494 0
-43 45 -494 0
43 45 494 0
481 -482 495 0
-481 -482 -495 0
481 482 -495 0
-481 482 495 0
483 -484 496 0
-483 -484 -496 0
483 484 -496 0
-483 484 496 0
485 -486 497 0
-485 -486 -497 0
485 486 -497 0
-485 486 497 0
487 -488 498 0
-487 -488 -498 0
487 488 -498 0
-487 488 498 0
489 -490 499 0
-489 -490 -499 0
489 490 -499 0
-489 490 499 0
491 -492 500 0
-491 -492 -500 0
491 492 -500 0
-491 492 500 0
493 -494 501 0
-493 -494 -501 0
493 494 -501 0
-493 494 501 0
495 -496 502 0
-495 -496 -502 0
495 496 -502 0
-495 496 502 0
497 -498 503 0
-497 -498 -503 0
497 498 -503 0
-497 498 503 0
499 -500 504 0
-499 -500 -504 0
499 500 -504 0
-499 500 504 0
501 -502 505 0
-501 -502 -505 0
501 502 -505 0
-501 502 505 0
503 -504 506 0
-503 -504 -506 0
503 504 -506 0
-503 504 506 0
505 506 0
-505 -506 0
-11 12 507 0
11 12 -507 0
-11 -12 -507 0
11 -12 507 0
-13 16 508 0
13 16 -508 0
-13 -16 -508 0
13 -16 508 0
-20 -22 509 0
20 -22 -509 0
-20 22 -509 0
20 22 509 0
23 -28 510 0
-23 -28 -510 0
23 28 -510 0
-23 28 510 0
-29 30 511 0
29 30 -511 0
-29 -30 -511 0
29 -30 511 0
32 36 512 0
-32 36 -512 0
32 -36 -512 0
-32 -36 512 0
-37 -39 513 0
37 -39 -513 0
-37 39 -513 0
37 39 513 0
41 42 514 0
-41 42 -514 0
41 -42 -514 0
-41 -42 514 0
48 -49 515 0
-48 -49 -515 0
48 49 -515 0
-48 49 515 0
506 -507 516 0
-506 -507 -516 0
506 507 -516 0
-506 507 516 0
508 -509 517 0
-508 -509 -517 0
508 509 -517 0
-508 509 517 0
510 -511 518 0
-510 -511 -518 0
510 511 -518 0
-510 511 518 0
512 -513 519 0
-512 -513 -519 0
512 513 -519 0
-512 513 519 0
514 -515 520 0
-514 -515 -520 0
514 515 -520 0
-514 515 520 0
516 -517 521 0
-516 -517 -521 0
516 517 -521 0
-516 517 521 0
518 -519 522 0
-518 -519 -522 0
518 519 -522 0
-518 519 522 0
-520 -521 522 0
520 -521 -522 0
-520 521 -522 0
520 521 522 0
-12 523 0
-24 523 0
-12 -24 524 0
-23 523 0
-12 -23 524 0
-24 -23 524 0
-12 -24 -23 525 0
-22 526 0
-21 526 0
-22 -21 527 0
-20 526 0
-22 -20 527 0
-21 -20 527 0
-22 -21 -20 528 0
-523 529 0
-524 530 0
-525 531 0
-526 529 0
-527 530 0
-528 531 0
-523 -526 530 0
-523 -527 531 0
-523 -528 532 0
-524 -526 531 0
-524 -527 532 0
-524 -528 533 0
-525 -526 532 0
-525 -527 533 0
-525 -528 534 0
-19 535 0
-18 535 0
-19 -18 536 0
-17 535 0
-19 -17 536 0
-18 -17 536 0
-19 -18 -17 537 0
-16 538 0
-15 538 0
-16 -15 539 0
-14 538 0
-16 -14 539 0
-15 -14 539 0
-16 -15 -14 540 0
-535 541 0
-536 542 0
-537 543 0
-538 541 0
-539 542 0
-540 543 0
-535 -538 542 0
-535 -539 543 0
-535 -540 544 0
-536 -538 543 0
-536 -539 544 0
-536 -540 545 0
-537 -538 544 0
-537 -539 545 0
-537 -540 546 0
-529 547 0
-531 548 0
-533 549 0
-541 547 0
-543 548 0
-545 549 0
-529 -541 548 0
-529 -543 549 0
-529 -545 550 0
-531 -541 549 0
-531 -543 550 0
-531 -545 551 0
-533 -541 550 0
-533 -543 551 0
-533 -545 552 0
-530 553 0
-532 554 0
-534 555 0
-542 553 0
-544 554 0
-546 555 0
-530 -542 554 0
-530 -544 555 0
-530 -546 556 0
-532 -542 555 0
-532 -544 556 0
-532 -546 557 0
-534 -542 556 0
-534 -544 557 0
-534 -546 558 0
-548 559 0
-553 559 0
-548 -553 560 0
-549 561 0
-554 561 0
-549 -554 562 0
-550 563 0
-555 563 0
-550 -555 564 0
-551 565 0
-556 565 0
-551 -556 566 0
-552 567 0
-557 567 0
-552 -557 568 0
-13 569 0
-25 569 0
-13 -25 570 0
-11 569 0
-13 -11 570 0
-25 -11 570 0
-13 -25 -11 571 0
-10 572 0
-9 572 0
-10 -9 573 0
-8 572 0
-10 -8 573 0
-9 -8 573 0
-10 -9 -8 574 0
-569 575 0
-570 576 0
-571 577 0
-572 575 0
-573 576 0
-574 577 0
-569 -572 576 0
-569 -573 577 0
-569 -574 578 0
-570 -572 577 0
-570 -573 578 0
-570 -574 579 0
-571 -572 578 0
-571 -573 579 0
-571 -574 580 0
-7 581 0
-6 581 0
-7 -6 582 0
-5 581 0
-7 -5 582 0
-6 -5 582 0
-7 -6 -5 583 0
-4 584 0
-3 584 0
-4 -3 585 0
-2 584 0
-4 -2 585 0
-3 -2 585 0
-4 -3 -2 586 0
-581 587 0
-582 588 0
-583 589 0
-584 587 0
-585 588 0
-586 589 0
-581 -584 588 0
-581 -585 589 0
-581 -586 590 0
-582 -584 589 0
-582 -585 590 0
-582 -586 591 0
-583 -584 590 0
-583 -585 591 0
-583 -586 592 0
-575 593 0
-577 594 0
-579 595 0
-587 593 0
-589 594 0
-591 595 0
-575 -587 594 0
-575 -589 595 0
-575 -591 596 0
-577 -587 595 0
-577 -589 596 0
-577 -591 597 0
-579 -587 596 0
-579 -589 597 0
-579 -591 598 0
-576 599 0
-578 600 0
-580 601 0
-588 599 0
-590 600 0
-592 601 0
-576 -588 600 0
-576 -590 601 0
-576 -592 602 0
-578 -588 601 0
-578 -590 602 0
-578 -592 603 0
-580 -588 602 0
-580 -590 603 0
-580 -592 604 0
-594 605 0
-599 605 0
-594 -599 606 0
-595 607 0
-600 607 0
-595 -600 608 0
-596 609 0
-601 609 0
-596 -601 610 0
-597 611 0
-602 611 0
-597 -602 612 0
-598 613 0
-603 613 0
-598 -603 614 0
-1 615 0
-37 615 0
-1 -37 616 0
-49 615 0
-1 -49 616 0
-37 -49 616 0
-1 -37 -49 617 0
-48 618 0
-47 618 0
-48 -47 619 0
-46 618 0
-48 -46 619 0
-47 -46 619 0
-48 -47 -46 620 0
-615 621 0
-616 622 0
-617 623 0
-618 621 0
-619 622 0
-620 623 0
-615 -618 622 0
-615 -619 623 0
-615 -620 624 0
-616 -618 623 0
-616 -619 624 0
-616 -620 625 0
-617 -618 624 0
-617 -619 625 0
-617 -620 626 0
-45 627 0
-44 627 0
-45 -44 628 0
-43 627 0
-45 -43 628 0
-44 -43 628 0
-45 -44 -43 629 0
-42 630 0
-41 630 0
-42 -41 631 0
-40 630 0
-42 -40 631 0
-41 -40 631 0
-42 -41 -40 632 0
-627 633 0
-628 634 0
-629 635 0
-630 633 0
-631 634 0
-632 635 0
-627 -630 634 0
-627 -631 635 0
-627 -632 636 0
-628 -630 635 0
-628 -631 636 0
-628 -632 637 0
-629 -630 636 0
-629 -631 637 0
-629 -632 638 0
-621 639 0
-623 640 0
-625 641 0
-633 639 0
-635 640 0
-637 641 0
-621 -633 640 0
-621 -635 641 0
-621 -637 642 0
-623 -633 641 0
-623 -635 642 0
-623 -637 643 0
-625 -633 642 0
-625 -635 643 0
-625 -637 644 0
-622 645 0
-624 646 0
-626 647 0
-634 645 0
-636 646 0
-638 647 0
-622 -634 646 0
-622 -636 647 0
-622 -638 648 0
-624 -634 647 0
-624 -636 648 0
-624 -638 649 0
-626 -634 648 0
-626 -636 649 0
-626 -638 650 0
-640 651 0
-645 651 0
-640 -645 652 0
-641 653 0
-646 653 0
-641 -646 654 0
-642 655 0
-647 655 0
-642 -647 656 0
-643 657 0
-648 657 0
-643 -648 658 0
-644 659 0
-649 659 0
-644 -649 660 0
-39 661 0
-38 661 0
-39 -38 662 0
-50 661 0
-39 -50 662 0
-38 -50 662 0
-39 -38 -50 663 0
-36 664 0
-35 664 0
-36 -35 665 0
-34 664 0
-36 -34 665 0
-35 -34 665 0
-36 -35 -34 666 0
-661 667 0
-662 668 0
-663 669 0
-664 667 0
-665 668 0
-666 669 0
-661 -664 668 0
-661 -665 669 0
-661 -666 670 0
-662 -664 669 0
-662 -665 670 0
-662 -666 671 0
-663 -664 670 0
-663 -665 671 0
-663 -666 672 0
-33 673 0
-32 673 0
-33 -32 674 0
-31 673 0
-33 -31 674 0
-32 -31 674 0
-33 -32 -31 675 0
-30 676 0
-29 676 0
-30 -29 677 0
-28 678 0
-27 678 0
-28 -27 679 0
-26 678 0
-28 -26 679 0
-27 -26 679 0
-28 -27 -26 680 0
-676 681 0
-677 682 0
-678 681 0
-679 682 0
-680 683 0
-676 -678 682 0
-676 -679 683 0
-676 -680 684 0
-677 -678 683 0
-677 -679 684 0
-677 -680 685 0
-673 686 0
-674 687 0
-675 688 0
-681 686 0
-682 687 0
-683 688 0
-684 689 0
-685 690 0
-673 -681 687 0
-673 -682 688 0
-673 -683 689 0
-673 -684 690 0
-673 -685 691 0
-674 -681 688 0
-674 -682 689 0
-674 -683 690 0
-674 -684 691 0
-674 -685 692 0
-675 -681 689 0
-675 -682 690 0
-675 -683 691 0
-675 -684 692 0
-675 -685 693 0
-667 694 0
-669 695 0
-671 696 0
-686 694 0
-688 695 0
-690 696 0
-692 697 0
-667 -686 695 0
-667 -688 696 0
-667 -690 697 0
-667 -692 698 0
-669 -686 696 0
-669 -688 697 0
-669 -690 698 0
-669 -692 699 0
-671 -686 697 0
-671 -688 698 0
-671 -690 699 0
-671 -692 700 0
-668 701 0
-670 702 0
-672 703 0
-687 701 0
-689 702 0
-691 703 0
-693 704 0
-668 -687 702 0
-668 -689 703 0
-668 -691 704 0
-668 -693 705 0
-670 -687 703 0
-670 -689 704 0
-670 -691 705 0
-670 -693 706 0
-672 -687 704 0
-672 -689 705 0
-672 -691 706 0
-672 -693 707 0
-695 708 0
-701 708 0
-695 -701 709 0
-696 710 0
-702 710 0
-696 -702 711 0
-697 712 0
-703 712 0
-697 -703 713 0
-698 714 0
-704 714 0
-698 -704 715 0
-699 716 0
-705 716 0
-699 -705 717 0
-700 718 0
-706 718 0
-700 -706 719 0
-639 720 0
-654 721 0
-658 722 0
-694 720 0
-711 721 0
-715 722 0
-719 723 0
-639 -694 721 0
-639 -711 722 0
-639 -715 723 0
-639 -719 724 0
-654 -694 722 0
-654 -711 723 0
-654 -715 724 0
-654 -719 725 0
-658 -694 723 0
-658 -711 724 0
-658 -715 725 0
-652 726 0
-656 727 0
-660 728 0
-709 726 0
-713 727 0
-717 728 0
-652 -709 727 0
-652 -713 728 0
-652 -717 729 0
-656 -709 728 0
-656 -713 729 0
-656 -717 730 0
-660 -709 729 0
-660 -713 730 0
-721 731 0
-726 731 0
-721 -726 732 0
-722 733 0
-727 733 0
-722 -727 734 0
-723 735 0
-728 735 0
-723 -728 736 0
-724 737 0
-729 737 0
-724 -729 738 0
-725 739 0
-730 739 0
-725 -730 740 0
-651 741 0
-655 742 0
-659 743 0
-708 741 0
-712 742 0
-716 743 0
-707 744 0
-651 -708 742 0
-651 -712 743 0
-651 -716 744 0
-651 -707 745 0
-655 -708 743 0
-655 -712 744 0
-655 -716 745 0
-655 -707 746 0
-659 -708 744 0
-659 -712 745 0
-659 -716 746 0
-653 747 0
-657 748 0
-650 749 0
-710 747 0
-714 748 0
-718 749 0
-653 -710 748 0
-653 -714 749 0
-653 -718 750 0
-657 -710 749 0
-657 -714 750 0
-657 -718 751 0
-650 -710 750 0
-650 -714 751 0
-742 752 0
-747 752 0
-742 -747 753 0
-743 754 0
-748 754 0
-743 -748 755 0
-744 756 0
-749 756 0
-744 -749 757 0
-745 758 0
-750 758 0
-745 -750 759 0
-746 760 0
-751 760 0
-731 761 0
-741 761 0
-731 -741 762 0
-732 763 0
-752 763 0
-732 -752 764 0
-733 765 0
-753 765 0
-733 -753 766 0
-734 767 0
-754 767 0
-734 -754 768 0
-735 769 0
-755 769 0
-735 -755 770 0
-736 771 0
-756 771 0
-736 -756 772 0
-737 773 0
-757 773 0
-737 -757 774 0
-738 775 0
-758 775 0
-738 -758 776 0
-739 777 0
-759 777 0
-739 -759 778 0
-740 779 0
-760 779 0
-740 -760 780 0
-593 781 0
-608 782 0
-612 783 0
-720 781 0
-764 782 0
-768 783 0
-772 784 0
-776 785 0
-780 786 0
-593 -720 782 0
-593 -764 783 0
-593 -768 784 0
-593 -772 785 0
-593 -776 786 0
-608 -720 783 0
-608 -764 784 0
-608 -768 785 0
-608 -772 786 0
-612 -720 784 0
-612 -764 785 0
-612 -768 786 0
-606 787 0
-610 788 0
-614 789 0
-762 787 0
-766 788 0
-770 789 0
-774 790 0
-778 791 0
-606 -762 788 0
-606 -766 789 0
-606 -770 790 0
-606 -774 791 0
-610 -762 789 0
-610 -766 790 0
-610 -770 791 0
-614 -762 790 0
-614 -766 791 0
-782 792 0
-787 792 0
-782 -787 793 0
-783 794 0
-788 794 0
-783 -788 795 0
-784 796 0
-789 796 0
-784 -789 797 0
-785 798 0
-790 798 0
-785 -790 799 0
-786 800 0
-791 800 0
-786 -791 801 0
-605 802 0
-609 803 0
-613 804 0
-761 802 0
-765 803 0
-769 804 0
-773 805 0
-777 806 0
-605 -761 803 0
-605 -765 804 0
-605 -769 805 0
-605 -773 806 0
-605 -777 807 0
-609 -761 804 0
-609 -765 805 0
-609 -769 806 0
-609 -773 807 0
-613 -761 805 0
-613 -765 806 0
-613 -769 807 0
-607 808 0
-611 809 0
-604 810 0
-763 808 0
-767 809 0
-771 810 0
-775 811 0
-779 812 0
-607 -763 809 0
-607 -767 810 0
-607 -771 811 0
-607 -775 812 0
-611 -763 810 0
-611 -767 811 0
-611 -771 812 0
-604 -763 811 0
-604 -767 812 0
-803 813 0
-808 813 0
-803 -808 814 0
-804 815 0
-809 815 0
-804 -809 816 0
-805 817 0
-810 817 0
-805 -810 818 0
-806 819 0
-811 819 0
-806 -811 820 0
-807 821 0
-812 821 0
-792 822 0
-802 822 0
-792 -802 823 0
-793 824 0
-813 824 0
-793 -813 825 0
-794 826 0
-814 826 0
-794 -814 827 0
-795 828 0
-815 828 0
-795 -815 829 0
-796 830 0
-816 830 0
-796 -816 831 0
-797 832 0
-817 832 0
-797 -817 833 0
-798 834 0
-818 834 0
-798 -818 835 0
-799 836 0
-819 836 0
-799 -819 837 0
-800 838 0
-820 838 0
-800 -820 839 0
-801 840 0
-821 840 0
-801 -821 841 0
-547 842 0
-562 843 0
-566 844 0
-781 842 0
-825 843 0
-829 844 0
-833 845 0
-837 846 0
-841 847 0
-547 -781 843 0
-547 -825 844 0
-547 -829 845 0
-547 -833 846 0
-547 -837 847 0
-562 -781 844 0
-562 -825 845 0
-562 -829 846 0
-562 -833 847 0
-566 -781 845 0
-566 -825 846 0
-566 -829 847 0
-560 848 0
-564 849 0
-568 850 0
-823 848 0
-827 849 0
-831 850 0
-835 851 0
-839 852 0
-560 -823 849 0
-560 -827 850 0
-560 -831 851 0
-560 -835 852 0
-564 -823 850 0
-564 -827 851 0
-564 -831 852 0
-568 -823 851 0
-568 -827 852 0
-843 853 0
-848 853 0
-843 -848 854 0
-844 855 0
-849 855 0
-844 -849 856 0
-845 857 0
-850 857 0
-845 -850 858 0
-846 859 0
-851 859 0
-846 -851 860 0
-847 861 0
-852 861 0
-847 -852 862 0
-559 863 0
-563 864 0
-567 865 0
-822 863 0
-826 864 0
-830 865 0
-834 866 0
-838 867 0
-559 -822 864 0
-559 -826 865 0
-559 -830 866 0
-559 -834 867 0
-559 -838 868 0
-563 -822 865 0
-563 -826 866 0
-563 -830 867 0
-563 -834 868 0
-567 -822 866 0
-567 -826 867 0
-567 -830 868 0
-561 869 0
-565 870 0
-558 871 0
-824 869 0
-828 870 0
-832 871 0
-836 872 0
-840 873 0
-561 -824 870 0
-561 -828 871 0
-561 -832 872 0
-561 -836 873 0
-565 -824 871 0
-565 -828 872 0
-565 -832 873 0
-558 -824 872 0
-558 -828 873 0
-864 874 0
-869 874 0
-864 -869 875 0
-865 876 0
-870 876 0
-865 -870 877 0
-866 878 0
-871 878 0
-866 -871 879 0
-867 880 0
-872 880 0
-867 -872 881 0
-868 882 0
-873 882 0
-853 883 0
-863 883 0
-853 -863 884 0
-854 885 0
-874 885 0
-854 -874 886 0
-855 887 0
-875 887 0
-855 -875 888 0
-856 889 0
-876 889 0
-856 -876 890 0
-857 891 0
-877 891 0
-857 -877 892 0
-858 893 0
-878 893 0
-858 -878 894 0
-859 895 0
-879 895 0
-859 -879 896 0
-860 897 0
-880 897 0
-860 -880 898 0
-861 899 0
-881 899 0
-861 -881 900 0
-862 901 0
-882 901 0
-862 -882 902 0
-902 0
